language Essence 1.3

letting blksize_delta be
        function(1 --> 8, 2 --> 8, 3 --> 8, 4 --> 8, 5 --> 8, 6 --> 9, 7 --> 8, 8 --> 10, 9 --> 8, 10 --> 9, 11 --> 8,
                 12 --> 8, 13 --> 8, 14 --> 8, 15 --> 8, 16 --> 8, 17 --> 8, 18 --> 8, 19 --> 8, 20 --> 8, 21 --> 8,
                 22 --> 8, 23 --> 8)
letting maxcars be
        function(1 --> 9, 2 --> 9, 3 --> 10, 4 --> 9, 5 --> 9, 6 --> 9, 7 --> 9, 8 --> 9, 9 --> 9, 10 --> 9, 11 --> 9,
                 12 --> 9, 13 --> 10, 14 --> 9, 15 --> 9, 16 --> 9, 17 --> 9, 18 --> 9, 19 --> 9, 20 --> 9, 21 --> 9,
                 22 --> 9, 23 --> 9)
letting n_cars be 227
letting n_classes be 28
letting n_options be 23
letting quantity be
        function(1 --> 8, 2 --> 9, 3 --> 8, 4 --> 8, 5 --> 8, 6 --> 8, 7 --> 8, 8 --> 9, 9 --> 9, 10 --> 8, 11 --> 8,
                 12 --> 8, 13 --> 8, 14 --> 8, 15 --> 8, 16 --> 8, 17 --> 8, 18 --> 8, 19 --> 8, 20 --> 8, 21 --> 8,
                 22 --> 8, 23 --> 8, 24 --> 8, 25 --> 8, 26 --> 8, 27 --> 8, 28 --> 8)
letting usage be
        relation((1, 2), (1, 15), (1, 23), (2, 5), (2, 13), (3, 13), (4, 5), (4, 9), (4, 19), (4, 20), (5, 12), (5, 15),
                 (6, 7), (7, 5), (8, 1), (8, 8), (8, 14), (8, 15), (9, 12), (10, 12), (10, 19), (11, 6), (11, 17),
                 (11, 22), (12, 11), (13, 3), (14, 3), (14, 23), (15, 3), (15, 11), (16, 14), (16, 18), (16, 22),
                 (17, 1), (18, 1), (18, 13), (18, 14), (19, 12), (20, 11), (20, 20), (21, 11), (21, 14), (21, 19),
                 (22, 20), (22, 21), (22, 23), (23, 3), (24, 2), (24, 8), (25, 23), (26, 13), (26, 16), (27, 5),
                 (28, 4), (28, 10), (28, 13))
$ Visualisation for usage
$  1  2
$  1 15
$  1 23
$  2  5
$  2 13
$  3 13
$  4  5
$  4  9
$  4 19
$  4 20
$  5 12
$  5 15
$  6  7
$  7  5
$  8  1
$  8  8
$  8 14
$  8 15
$  9 12
$ 10 12
$ 10 19
$ 11  6
$ 11 17
$ 11 22
$ 12 11
$ 13  3
$ 14  3
$ 14 23
$ 15  3
$ 15 11
$ 16 14
$ 16 18
$ 16 22
$ 17  1
$ 18  1
$ 18 13
$ 18 14
$ 19 12
$ 20 11
$ 20 20
$ 21 11
$ 21 14
$ 21 19
$ 22 20
$ 22 21
$ 22 23
$ 23  3
$ 24  2
$ 24  8
$ 25 23
$ 26 13
$ 26 16
$ 27  5
$ 28  4
$ 28 10
$ 28 13

